p wcnf 175 206 207 
1 -143 -122 0 
1 -4 -29 0 
1 -121 157 0 
1 -75 -165 0 
1 94 138 0 
1 107 -101 0 
1 -84 101 0 
1 7 -14 0 
1 -112 111 0 
1 -171 -111 0 
1 -102 -136 0 
1 -112 171 0 
1 -124 -141 0 
1 10 170 0 
1 77 13 0 
1 -100 -105 0 
1 31 -96 0 
1 127 -115 0 
1 -58 14 0 
1 -72 -19 0 
1 149 52 0 
1 -26 -85 0 
1 39 96 0 
1 -90 73 0 
1 -31 -50 0 
1 13 -126 0 
1 -135 19 0 
1 -8 168 0 
1 155 10 0 
1 -116 -67 0 
1 43 141 0 
1 107 75 0 
1 -93 140 0 
1 -129 83 0 
1 -43 -161 0 
1 -155 162 0 
1 172 50 0 
1 85 38 0 
1 -150 -88 0 
1 -96 -12 0 
1 -14 -12 0 
1 36 92 0 
1 -98 -69 0 
1 -46 -38 0 
1 155 73 0 
1 -67 -94 0 
1 -5 164 0 
1 44 -124 0 
1 -131 125 0 
1 -42 100 0 
1 -82 -39 0 
1 -4 63 0 
1 26 -10 0 
1 -144 -13 0 
1 16 151 0 
1 23 -69 0 
1 66 16 0 
1 -130 -122 0 
1 -172 -12 0 
1 174 -133 0 
1 -72 137 0 
1 -94 -1 0 
1 -168 12 0 
1 -82 -154 0 
1 -128 27 0 
1 -12 117 0 
1 -31 25 0 
1 53 109 0 
1 34 22 0 
1 118 107 0 
1 65 -15 0 
1 -14 153 0 
1 -22 -175 0 
1 -81 33 0 
1 -108 -61 0 
1 -69 -40 0 
1 163 58 0 
1 173 -137 0 
1 15 -32 0 
1 -165 -12 0 
1 -88 -114 0 
1 -1 106 0 
1 44 22 0 
1 124 -127 0 
1 -96 -30 0 
1 -47 -89 0 
1 109 -145 0 
1 -7 138 0 
1 37 124 0 
1 -94 -167 0 
1 -91 -58 0 
1 -124 -92 0 
1 -110 35 0 
1 136 162 0 
1 -28 -161 0 
1 67 33 0 
1 -170 -141 0 
1 -103 59 0 
1 159 -92 0 
1 126 123 0 
1 173 97 0 
1 -72 -149 0 
1 -125 -96 0 
1 -4 -36 0 
1 30 105 0 
1 47 -28 0 
1 -111 -87 0 
1 -66 68 0 
1 28 -175 0 
1 29 14 0 
1 -122 59 0 
1 -87 -119 0 
1 -5 -60 0 
1 -52 -7 0 
1 148 -99 0 
1 -129 -46 0 
1 -143 -117 0 
1 -117 -53 0 
1 162 -143 0 
1 116 -144 0 
1 -18 62 0 
1 8 83 0 
1 149 -34 0 
1 61 43 0 
1 161 -111 0 
1 -99 59 0 
1 -21 104 0 
1 -171 -82 0 
1 -67 -3 0 
1 70 -95 0 
1 162 -142 0 
1 65 -90 0 
1 141 158 0 
1 -140 75 0 
1 79 -170 0 
1 -83 97 0 
1 34 159 0 
1 43 -13 0 
1 96 -21 0 
1 -83 -98 0 
1 36 -73 0 
1 -127 34 0 
1 173 -131 0 
1 131 -96 0 
1 1 154 0 
1 65 84 0 
1 152 -122 0 
1 -170 32 0 
1 -96 -26 0 
1 93 55 0 
1 -173 6 0 
1 -4 -133 0 
1 -101 50 0 
1 57 -133 0 
1 53 118 0 
1 129 128 0 
1 162 18 0 
1 -64 -110 0 
1 85 -152 0 
1 118 85 0 
1 3 -66 0 
1 -83 142 0 
1 73 -113 0 
1 17 74 0 
1 173 -32 0 
1 -81 62 0 
1 -138 161 0 
1 -148 33 0 
1 -136 -89 0 
1 -8 -129 0 
1 35 -129 0 
1 -32 -109 0 
1 92 113 0 
1 129 131 0 
1 -121 151 0 
1 -41 43 0 
1 167 -60 0 
1 68 -59 0 
1 49 32 0 
1 -77 -115 0 
1 105 22 0 
1 46 -31 0 
1 -42 -144 0 
1 -117 132 0 
1 102 109 0 
1 -29 -48 0 
1 -40 74 0 
1 -43 -142 0 
1 -127 -124 0 
1 -159 -77 0 
1 -168 -45 0 
1 61 33 0 
1 -10 117 0 
1 75 -164 0 
1 -28 -142 0 
1 -2 -38 0 
1 136 110 0 
1 -154 -28 0 
1 43 169 0 
1 -63 -127 0 
1 -11 -126 0 
1 28 37 0 
1 -104 -95 0 
1 -150 -116 0 
1 57 -25 0 
1 -101 158 0 
